c WARNING: for repeatability, setting FPU to use double precision
c ============================[ Problem Statistics ]=============================
c |                                                                             |
c |  Number of variables:           150                                         |
c |  Number of clauses:             645                                         |
c |  Parse time:                   0.00 s                                       |
c |  Eliminated clauses:           0.00 Mb                                      |
c |  Simplification time:          0.00 s                                       |
c |                                                                             |
c ============================[ Search Statistics ]==============================
c | Conflicts |          ORIGINAL         |          LEARNT          | Progress |
c |           |    Vars  Clauses Literals |    Limit  Clauses Lit/Cl |          |
c ===============================================================================
c ===============================================================================
c restarts              : 2
c conflicts             : 4280           (126146 /sec)
c decisions             : 5002           (0.00 % random) (147426 /sec)
c propagations          : 126978         (3742462 /sec)
c conflict literals     : 34904          (24.76 % deleted)
c Memory used           : 6.00 MB
c CPU time              : 0.033929 s
c 
s UNSATISFIABLE
